EDIFF = 1e-05
EDIFFG = -0.01
LWAVE = False
MAGMOM = 8*7.0 64*0.0
