Ag8 B8 H16 O8 F32
1.0
   7.3869622499999998    0.0000000000000000    0.0000000000000005
   0.0000000000000013    8.1225076900000008    0.0000000000000005
   0.0000000000000000    0.0000000000000000   12.9633775700000005
Ag B H O F
8 8 16 8 32
direct
   0.8958962799999999    0.2392158900000000    0.8427266200000001 Ag
   0.3958962799999999    0.7607841100000000    0.6572733799999999 Ag
   0.6041037200000001    0.7392158900000000    0.1572733799999999 Ag
   0.1041037200000001    0.2607841100000000    0.3427266200000001 Ag
   0.1041037200000001    0.7607841100000000    0.1572733799999999 Ag
   0.6041037200000001    0.2392158900000000    0.3427266200000001 Ag
   0.3958962799999999    0.2607841100000000    0.8427266200000001 Ag
   0.8958962799999999    0.7392158900000000    0.6572733799999999 Ag
   0.6107406599999999    0.3636056500000000    0.6267867700000000 B
   0.6107406599999999    0.8636056500000000    0.8732132300000000 B
   0.1107406599999998    0.1363943500000000    0.6267867700000000 B
   0.8892593400000001    0.3636056500000000    0.1267867700000000 B
   0.3892593400000001    0.6363943500000000    0.3732132300000000 B
   0.3892593400000001    0.1363943500000000    0.1267867700000000 B
   0.8892593400000001    0.8636056500000000    0.3732132300000000 B
   0.1107406599999998    0.6363943500000000    0.8732132300000000 B
   0.6678008800000000    0.4216968100000000    0.9680701700000001 H
   0.1678008800000002    0.5783031900000000    0.5319298299999999 H
   0.8321991200000000    0.9216968100000000    0.0319298299999999 H
   0.3321991200000000    0.0783031900000000    0.4680701700000001 H
   0.3321991200000000    0.5783031900000000    0.0319298299999999 H
   0.8321991200000000    0.4216968100000000    0.4680701700000001 H
   0.1678008800000002    0.0783031900000000    0.9680701700000001 H
   0.6678008800000000    0.9216968100000000    0.5319298299999999 H
   0.8400486799999999    0.0169316000000000    0.1371474800000001 H
   0.3400486799999998    0.9830684000000000    0.3628525199999999 H
   0.3400486799999998    0.4830684000000000    0.1371474800000001 H
   0.8400486799999999    0.5169316000000000    0.3628525199999999 H
   0.1599513200000001    0.9830684000000000    0.8628525199999999 H
   0.6599513200000001    0.0169316000000000    0.6371474800000001 H
   0.6599513200000001    0.5169316000000000    0.8628525199999999 H
   0.1599513200000001    0.4830684000000000    0.6371474800000001 H
   0.6536917600000000    0.4073677100000000    0.8936751800000000 O
   0.8463082400000000    0.9073677099999999    0.1063248200000000 O
   0.3463082400000000    0.0926322900000000    0.3936751800000000 O
   0.3463082400000000    0.5926322900000001    0.1063248200000000 O
   0.8463082400000000    0.4073677100000000    0.3936751800000000 O
   0.1536917600000001    0.0926322900000000    0.8936751800000000 O
   0.6536917600000000    0.9073677099999999    0.6063248200000000 O
   0.1536917600000001    0.5926322900000001    0.6063248200000000 O
   0.6649707399999999    0.2226014100000000    0.6842507800000002 F
   0.1649707399999998    0.2773985900000000    0.6842507800000002 F
   0.8350292600000001    0.2226014100000000    0.1842507800000002 F
   0.3350292600000001    0.7773985900000000    0.3157492199999998 F
   0.5146970599999999    0.8150114000000001    0.9600986300000001 F
   0.8350292600000001    0.7226014100000000    0.3157492199999998 F
   0.1649707399999998    0.7773985900000000    0.8157492199999998 F
   0.6649707399999999    0.7226014100000000    0.8157492199999998 F
   0.5046844599999999    0.9628701500000000    0.8081523900000001 F
   0.0046844600000000    0.0371298500000000    0.6918476099999999 F
   0.9953155400000001    0.4628701500000001    0.1918476099999999 F
   0.4953155400000001    0.5371298500000000    0.3081523900000001 F
   0.4953155400000001    0.0371298500000000    0.1918476099999999 F
   0.9953155400000001    0.9628701500000000    0.3081523900000001 F
   0.7674987899999999    0.4519636500000000    0.5972016600000001 F
   0.5046844599999999    0.4628701500000001    0.6918476099999999 F
   0.2674987899999999    0.5480363500000001    0.9027983399999999 F
   0.7325012100000001    0.9519636499999999    0.4027983399999999 F
   0.2325012100000001    0.0480363500000000    0.0972016600000001 F
   0.2325012100000001    0.5480363500000001    0.4027983399999999 F
   0.7325012100000001    0.4519636500000000    0.0972016600000001 F
   0.2674987899999999    0.0480363500000000    0.5972016600000001 F
   0.7674987899999999    0.9519636499999999    0.9027983399999999 F
   0.5146970599999999    0.3150113999999999    0.5399013699999999 F
   0.0146970600000000    0.6849885999999999    0.9600986300000001 F
   0.9853029400000001    0.8150114000000001    0.4600986300000001 F
   0.4853029400000001    0.1849885999999999    0.0399013699999999 F
   0.4853029400000001    0.6849885999999999    0.4600986300000001 F
   0.9853029400000001    0.3150113999999999    0.0399013699999999 F
   0.0146970600000000    0.1849885999999999    0.5399013699999999 F
   0.0046844600000000    0.5371298500000000    0.8081523900000001 F
   0.3350292600000001    0.2773985900000000    0.1842507800000002 F
