EDIFF = 1e-6
EDIFFG = -0.01
ENCUT = 600
NSW = 25
IBRION = 2
ISIF = 3
NELM = 100 
MAGMOM = 0 2 3*0
LWAVE = False